c Reduced graph for zeroin.i.3_1 generated by Cyril Grelier
p edge 103 2206
v 1 19
v 2 19
v 3 19
v 4 19
v 5 19
v 6 19
v 7 19
v 8 19
v 9 19
v 10 18
v 11 18
v 12 18
v 13 18
v 14 18
v 15 18
v 16 17
v 17 17
v 18 17
v 19 17
v 20 17
v 21 16
v 22 16
v 23 16
v 24 16
v 25 16
v 26 16
v 27 15
v 28 15
v 29 15
v 30 14
v 31 14
v 32 14
v 33 14
v 34 13
v 35 13
v 36 12
v 37 12
v 38 12
v 39 12
v 40 12
v 41 11
v 42 11
v 43 11
v 44 11
v 45 11
v 46 11
v 47 11
v 48 11
v 49 10
v 50 10
v 51 10
v 52 10
v 53 9
v 54 9
v 55 9
v 56 9
v 57 9
v 58 9
v 59 9
v 60 9
v 61 9
v 62 8
v 63 8
v 64 8
v 65 8
v 66 8
v 67 7
v 68 7
v 69 7
v 70 7
v 71 6
v 72 6
v 73 6
v 74 6
v 75 5
v 76 5
v 77 5
v 78 5
v 79 5
v 80 5
v 81 5
v 82 4
v 83 4
v 84 4
v 85 4
v 86 4
v 87 4
v 88 3
v 89 3
v 90 3
v 91 3
v 92 3
v 93 3
v 94 3
v 95 2
v 96 2
v 97 2
v 98 2
v 99 2
v 100 2
v 101 1
v 102 1
v 103 1
e 1 2
e 1 3
e 1 4
e 1 5
e 1 6
e 1 7
e 1 8
e 1 9
e 1 10
e 1 11
e 1 12
e 1 13
e 1 14
e 1 15
e 1 16
e 1 17
e 1 19
e 1 20
e 1 21
e 1 24
e 1 25
e 1 26
e 1 27
e 1 28
e 1 29
e 1 30
e 1 32
e 1 33
e 1 34
e 1 35
e 1 38
e 1 39
e 1 40
e 1 41
e 1 42
e 1 43
e 1 44
e 1 45
e 1 46
e 1 47
e 1 48
e 1 49
e 1 51
e 1 52
e 1 53
e 1 54
e 1 55
e 1 56
e 1 58
e 1 59
e 1 60
e 1 61
e 1 63
e 1 64
e 1 65
e 1 66
e 1 67
e 1 68
e 1 69
e 1 70
e 1 71
e 1 72
e 1 74
e 1 75
e 1 78
e 1 79
e 1 81
e 1 82
e 1 83
e 1 84
e 1 85
e 1 86
e 1 87
e 1 88
e 1 89
e 1 91
e 1 92
e 1 93
e 1 94
e 1 95
e 1 96
e 1 97
e 1 98
e 1 100
e 1 102
e 1 103
e 2 3
e 2 4
e 2 5
e 2 6
e 2 7
e 2 8
e 2 10
e 2 11
e 2 13
e 2 14
e 2 15
e 2 16
e 2 17
e 2 21
e 2 25
e 2 26
e 2 29
e 2 30
e 2 32
e 2 33
e 2 34
e 2 35
e 2 38
e 2 39
e 2 40
e 2 41
e 2 42
e 2 44
e 2 45
e 2 47
e 2 48
e 2 49
e 2 51
e 2 52
e 2 53
e 2 54
e 2 55
e 2 58
e 2 59
e 2 60
e 2 61
e 2 63
e 2 64
e 2 65
e 2 66
e 2 67
e 2 68
e 2 70
e 2 71
e 2 74
e 2 75
e 2 78
e 2 79
e 2 81
e 2 82
e 2 83
e 2 84
e 2 85
e 2 86
e 2 88
e 2 89
e 2 91
e 2 92
e 2 93
e 2 94
e 2 95
e 2 96
e 2 97
e 2 98
e 2 100
e 2 103
e 3 4
e 3 5
e 3 6
e 3 7
e 3 8
e 3 10
e 3 11
e 3 13
e 3 14
e 3 15
e 3 16
e 3 17
e 3 21
e 3 25
e 3 26
e 3 29
e 3 30
e 3 32
e 3 33
e 3 34
e 3 35
e 3 38
e 3 39
e 3 40
e 3 41
e 3 42
e 3 44
e 3 45
e 3 47
e 3 48
e 3 49
e 3 51
e 3 52
e 3 53
e 3 54
e 3 55
e 3 58
e 3 60
e 3 61
e 3 63
e 3 64
e 3 65
e 3 66
e 3 67
e 3 68
e 3 70
e 3 71
e 3 74
e 3 75
e 3 78
e 3 79
e 3 81
e 3 82
e 3 83
e 3 84
e 3 86
e 3 88
e 3 89
e 3 91
e 3 92
e 3 93
e 3 94
e 3 95
e 3 96
e 3 97
e 3 98
e 3 100
e 3 103
e 4 10
e 4 16
e 4 18
e 4 21
e 4 23
e 4 30
e 4 41
e 4 42
e 4 53
e 4 58
e 4 62
e 4 65
e 4 67
e 4 68
e 4 70
e 4 74
e 4 75
e 4 76
e 4 82
e 4 84
e 4 91
e 4 94
e 4 95
e 4 96
e 4 97
e 4 98
e 4 99
e 4 101
e 5 14
e 5 16
e 5 17
e 5 21
e 5 30
e 5 38
e 5 41
e 5 42
e 5 47
e 5 49
e 5 53
e 5 54
e 5 55
e 5 62
e 5 63
e 5 67
e 5 68
e 5 75
e 5 82
e 5 83
e 5 88
e 5 95
e 5 96
e 5 97
e 5 98
e 5 101
e 6 16
e 6 17
e 6 21
e 6 30
e 6 39
e 6 41
e 6 42
e 6 44
e 6 49
e 6 51
e 6 53
e 6 54
e 6 55
e 6 62
e 6 63
e 6 67
e 6 68
e 6 75
e 6 82
e 6 83
e 6 88
e 6 95
e 6 96
e 6 97
e 6 98
e 6 101
e 7 15
e 7 16
e 7 17
e 7 21
e 7 22
e 7 30
e 7 31
e 7 34
e 7 36
e 7 37
e 7 41
e 7 42
e 7 53
e 7 62
e 7 67
e 7 68
e 7 71
e 7 75
e 7 77
e 7 82
e 7 95
e 7 96
e 7 97
e 7 98
e 7 101
e 8 16
e 8 17
e 8 21
e 8 30
e 8 34
e 8 41
e 8 42
e 8 49
e 8 53
e 8 54
e 8 55
e 8 62
e 8 63
e 8 67
e 8 68
e 8 71
e 8 75
e 8 82
e 8 83
e 8 88
e 8 95
e 8 96
e 8 97
e 8 98
e 8 101
e 9 16
e 9 18
e 9 21
e 9 22
e 9 23
e 9 30
e 9 31
e 9 36
e 9 37
e 9 41
e 9 42
e 9 50
e 9 53
e 9 57
e 9 62
e 9 67
e 9 73
e 9 76
e 9 77
e 9 80
e 9 90
e 9 95
e 9 96
e 9 99
e 9 101
e 10 16
e 10 18
e 10 21
e 10 23
e 10 30
e 10 41
e 10 42
e 10 50
e 10 53
e 10 57
e 10 58
e 10 62
e 10 65
e 10 67
e 10 68
e 10 70
e 10 73
e 10 74
e 10 75
e 10 76
e 10 80
e 10 82
e 10 84
e 10 91
e 10 94
e 10 95
e 10 96
e 10 97
e 10 98
e 10 99
e 10 101
e 11 16
e 11 17
e 11 21
e 11 30
e 11 34
e 11 41
e 11 42
e 11 49
e 11 53
e 11 54
e 11 62
e 11 63
e 11 67
e 11 68
e 11 71
e 11 75
e 11 82
e 11 83
e 11 86
e 11 88
e 11 95
e 11 96
e 11 97
e 11 98
e 11 101
e 12 16
e 12 18
e 12 21
e 12 22
e 12 23
e 12 30
e 12 31
e 12 36
e 12 37
e 12 41
e 12 42
e 12 50
e 12 53
e 12 57
e 12 62
e 12 67
e 12 73
e 12 76
e 12 77
e 12 80
e 12 82
e 12 90
e 12 95
e 12 96
e 12 99
e 12 101
e 13 16
e 13 17
e 13 21
e 13 30
e 13 34
e 13 41
e 13 42
e 13 48
e 13 49
e 13 53
e 13 54
e 13 62
e 13 63
e 13 67
e 13 68
e 13 71
e 13 75
e 13 82
e 13 83
e 13 95
e 13 96
e 13 97
e 13 98
e 13 101
e 14 16
e 14 17
e 14 21
e 14 30
e 14 41
e 14 42
e 14 49
e 14 53
e 14 54
e 14 55
e 14 62
e 14 63
e 14 67
e 14 68
e 14 75
e 14 82
e 14 83
e 14 88
e 14 95
e 14 96
e 14 97
e 14 98
e 14 101
e 15 16
e 15 17
e 15 21
e 15 30
e 15 34
e 15 41
e 15 42
e 15 53
e 15 62
e 15 67
e 15 68
e 15 71
e 15 75
e 15 82
e 15 95
e 15 96
e 15 97
e 15 98
e 15 101
e 16 17
e 16 21
e 16 24
e 16 25
e 16 26
e 16 27
e 16 29
e 16 30
e 16 32
e 16 33
e 16 34
e 16 35
e 16 38
e 16 39
e 16 40
e 16 41
e 16 42
e 16 43
e 16 44
e 16 45
e 16 47
e 16 48
e 16 49
e 16 51
e 16 52
e 16 53
e 16 54
e 16 55
e 16 56
e 16 58
e 16 59
e 16 60
e 16 61
e 16 63
e 16 64
e 16 65
e 16 66
e 16 67
e 16 68
e 16 69
e 16 70
e 16 71
e 16 72
e 16 74
e 16 75
e 16 78
e 16 79
e 16 81
e 16 82
e 16 83
e 16 84
e 16 86
e 16 87
e 16 88
e 16 89
e 16 91
e 16 92
e 16 93
e 16 94
e 16 95
e 16 96
e 16 97
e 16 98
e 16 100
e 16 102
e 16 103
e 17 21
e 17 25
e 17 26
e 17 29
e 17 30
e 17 32
e 17 33
e 17 34
e 17 35
e 17 38
e 17 39
e 17 40
e 17 41
e 17 42
e 17 44
e 17 45
e 17 47
e 17 48
e 17 49
e 17 51
e 17 52
e 17 53
e 17 54
e 17 55
e 17 60
e 17 61
e 17 62
e 17 63
e 17 64
e 17 66
e 17 67
e 17 68
e 17 71
e 17 75
e 17 78
e 17 79
e 17 81
e 17 82
e 17 83
e 17 86
e 17 88
e 17 89
e 17 92
e 17 93
e 17 95
e 17 96
e 17 97
e 17 98
e 17 100
e 17 101
e 17 103
e 18 19
e 18 20
e 18 22
e 18 23
e 18 24
e 18 27
e 18 28
e 18 31
e 18 36
e 18 37
e 18 43
e 18 46
e 18 50
e 18 56
e 18 57
e 18 58
e 18 59
e 18 62
e 18 65
e 18 69
e 18 72
e 18 73
e 18 74
e 18 76
e 18 77
e 18 80
e 18 84
e 18 85
e 18 87
e 18 90
e 18 91
e 18 99
e 18 101
e 18 102
e 19 20
e 19 22
e 19 23
e 19 28
e 19 30
e 19 31
e 19 36
e 19 37
e 19 41
e 19 43
e 19 46
e 19 50
e 19 53
e 19 56
e 19 57
e 19 62
e 19 68
e 19 72
e 19 73
e 19 75
e 19 76
e 19 77
e 19 80
e 19 82
e 19 85
e 19 90
e 19 96
e 19 99
e 19 101
e 20 22
e 20 23
e 20 28
e 20 30
e 20 31
e 20 36
e 20 37
e 20 41
e 20 43
e 20 46
e 20 50
e 20 53
e 20 56
e 20 57
e 20 62
e 20 72
e 20 73
e 20 75
e 20 76
e 20 77
e 20 80
e 20 82
e 20 85
e 20 90
e 20 96
e 20 99
e 20 101
e 21 24
e 21 25
e 21 26
e 21 27
e 21 29
e 21 30
e 21 32
e 21 33
e 21 34
e 21 35
e 21 38
e 21 39
e 21 40
e 21 41
e 21 42
e 21 43
e 21 44
e 21 45
e 21 47
e 21 48
e 21 49
e 21 51
e 21 52
e 21 53
e 21 54
e 21 55
e 21 56
e 21 58
e 21 59
e 21 60
e 21 61
e 21 63
e 21 64
e 21 65
e 21 66
e 21 67
e 21 68
e 21 69
e 21 70
e 21 71
e 21 72
e 21 74
e 21 75
e 21 78
e 21 79
e 21 81
e 21 82
e 21 83
e 21 84
e 21 86
e 21 87
e 21 88
e 21 89
e 21 91
e 21 92
e 21 93
e 21 94
e 21 95
e 21 96
e 21 97
e 21 98
e 21 100
e 21 102
e 21 103
e 22 23
e 22 24
e 22 27
e 22 28
e 22 31
e 22 34
e 22 36
e 22 37
e 22 43
e 22 46
e 22 49
e 22 50
e 22 54
e 22 56
e 22 57
e 22 59
e 22 62
e 22 63
e 22 69
e 22 71
e 22 72
e 22 73
e 22 76
e 22 77
e 22 80
e 22 83
e 22 85
e 22 87
e 22 90
e 22 98
e 22 99
e 22 101
e 22 102
e 23 24
e 23 27
e 23 28
e 23 31
e 23 36
e 23 37
e 23 43
e 23 46
e 23 50
e 23 56
e 23 57
e 23 58
e 23 59
e 23 62
e 23 65
e 23 69
e 23 72
e 23 73
e 23 76
e 23 77
e 23 80
e 23 84
e 23 85
e 23 87
e 23 90
e 23 99
e 23 101
e 23 102
e 24 31
e 24 36
e 24 37
e 24 41
e 24 42
e 24 43
e 24 50
e 24 53
e 24 56
e 24 57
e 24 62
e 24 67
e 24 69
e 24 72
e 24 73
e 24 76
e 24 77
e 24 80
e 24 87
e 24 90
e 24 95
e 24 97
e 24 99
e 24 101
e 24 102
e 25 30
e 25 38
e 25 41
e 25 42
e 25 49
e 25 53
e 25 54
e 25 55
e 25 62
e 25 63
e 25 64
e 25 67
e 25 68
e 25 75
e 25 78
e 25 81
e 25 82
e 25 83
e 25 88
e 25 95
e 25 96
e 25 97
e 25 98
e 25 101
e 26 30
e 26 34
e 26 41
e 26 42
e 26 49
e 26 52
e 26 53
e 26 54
e 26 62
e 26 63
e 26 67
e 26 68
e 26 71
e 26 75
e 26 82
e 26 83
e 26 86
e 26 92
e 26 95
e 26 96
e 26 97
e 26 98
e 26 101
e 27 30
e 27 31
e 27 36
e 27 37
e 27 41
e 27 42
e 27 50
e 27 53
e 27 57
e 27 62
e 27 67
e 27 68
e 27 73
e 27 75
e 27 76
e 27 77
e 27 80
e 27 82
e 27 90
e 27 95
e 27 96
e 27 99
e 27 101
e 28 30
e 28 31
e 28 36
e 28 37
e 28 41
e 28 43
e 28 46
e 28 50
e 28 53
e 28 56
e 28 57
e 28 62
e 28 72
e 28 73
e 28 76
e 28 77
e 28 80
e 28 82
e 28 85
e 28 90
e 28 96
e 28 99
e 28 101
e 29 30
e 29 38
e 29 41
e 29 42
e 29 49
e 29 53
e 29 54
e 29 55
e 29 62
e 29 63
e 29 67
e 29 68
e 29 75
e 29 82
e 29 83
e 29 88
e 29 95
e 29 96
e 29 97
e 29 98
e 29 101
e 29 103
e 30 32
e 30 33
e 30 34
e 30 35
e 30 38
e 30 39
e 30 40
e 30 41
e 30 42
e 30 44
e 30 45
e 30 46
e 30 47
e 30 48
e 30 49
e 30 51
e 30 52
e 30 53
e 30 54
e 30 55
e 30 58
e 30 59
e 30 60
e 30 61
e 30 63
e 30 64
e 30 65
e 30 66
e 30 67
e 30 68
e 30 70
e 30 71
e 30 72
e 30 74
e 30 75
e 30 78
e 30 79
e 30 81
e 30 82
e 30 83
e 30 84
e 30 85
e 30 86
e 30 88
e 30 89
e 30 91
e 30 92
e 30 93
e 30 94
e 30 95
e 30 96
e 30 97
e 30 98
e 30 100
e 30 103
e 31 34
e 31 36
e 31 37
e 31 43
e 31 46
e 31 49
e 31 50
e 31 54
e 31 56
e 31 57
e 31 59
e 31 62
e 31 63
e 31 69
e 31 71
e 31 72
e 31 73
e 31 76
e 31 77
e 31 80
e 31 83
e 31 85
e 31 87
e 31 90
e 31 98
e 31 99
e 31 101
e 31 102
e 32 33
e 32 34
e 32 40
e 32 41
e 32 42
e 32 49
e 32 53
e 32 54
e 32 55
e 32 62
e 32 63
e 32 64
e 32 67
e 32 68
e 32 75
e 32 78
e 32 79
e 32 82
e 32 83
e 32 88
e 32 89
e 32 95
e 32 96
e 32 97
e 32 98
e 32 100
e 32 101
e 33 41
e 33 42
e 33 49
e 33 53
e 33 54
e 33 55
e 33 62
e 33 63
e 33 64
e 33 67
e 33 68
e 33 75
e 33 78
e 33 79
e 33 82
e 33 83
e 33 88
e 33 95
e 33 96
e 33 97
e 33 98
e 33 100
e 33 101
e 34 36
e 34 37
e 34 41
e 34 42
e 34 48
e 34 49
e 34 52
e 34 53
e 34 54
e 34 55
e 34 60
e 34 61
e 34 62
e 34 63
e 34 67
e 34 68
e 34 71
e 34 75
e 34 77
e 34 78
e 34 79
e 34 82
e 34 83
e 34 86
e 34 88
e 34 92
e 34 95
e 34 96
e 34 97
e 34 98
e 34 101
e 35 41
e 35 42
e 35 49
e 35 53
e 35 54
e 35 55
e 35 62
e 35 63
e 35 64
e 35 67
e 35 68
e 35 75
e 35 78
e 35 81
e 35 82
e 35 83
e 35 88
e 35 89
e 35 95
e 35 96
e 35 97
e 35 98
e 35 101
e 36 37
e 36 43
e 36 46
e 36 49
e 36 50
e 36 54
e 36 56
e 36 57
e 36 59
e 36 62
e 36 63
e 36 69
e 36 71
e 36 72
e 36 73
e 36 76
e 36 77
e 36 80
e 36 83
e 36 85
e 36 87
e 36 90
e 36 98
e 36 99
e 36 101
e 36 102
e 37 43
e 37 46
e 37 49
e 37 50
e 37 54
e 37 56
e 37 57
e 37 59
e 37 62
e 37 63
e 37 69
e 37 71
e 37 72
e 37 73
e 37 76
e 37 77
e 37 80
e 37 83
e 37 85
e 37 87
e 37 90
e 37 98
e 37 99
e 37 101
e 37 102
e 38 39
e 38 41
e 38 42
e 38 47
e 38 49
e 38 53
e 38 54
e 38 55
e 38 62
e 38 63
e 38 64
e 38 67
e 38 68
e 38 75
e 38 78
e 38 81
e 38 82
e 38 83
e 38 88
e 38 93
e 38 95
e 38 96
e 38 97
e 38 98
e 38 101
e 38 103
e 39 41
e 39 42
e 39 44
e 39 45
e 39 49
e 39 51
e 39 53
e 39 54
e 39 55
e 39 62
e 39 63
e 39 66
e 39 67
e 39 68
e 39 75
e 39 82
e 39 83
e 39 88
e 39 95
e 39 96
e 39 97
e 39 98
e 39 101
e 40 41
e 40 42
e 40 49
e 40 53
e 40 54
e 40 55
e 40 62
e 40 63
e 40 64
e 40 67
e 40 68
e 40 75
e 40 78
e 40 79
e 40 82
e 40 83
e 40 88
e 40 89
e 40 95
e 40 96
e 40 97
e 40 98
e 40 101
e 41 42
e 41 43
e 41 44
e 41 45
e 41 46
e 41 47
e 41 48
e 41 49
e 41 51
e 41 52
e 41 53
e 41 54
e 41 55
e 41 56
e 41 58
e 41 59
e 41 60
e 41 61
e 41 63
e 41 64
e 41 65
e 41 66
e 41 67
e 41 68
e 41 69
e 41 70
e 41 71
e 41 72
e 41 74
e 41 75
e 41 78
e 41 79
e 41 81
e 41 82
e 41 83
e 41 84
e 41 85
e 41 86
e 41 87
e 41 88
e 41 89
e 41 91
e 41 92
e 41 93
e 41 94
e 41 95
e 41 96
e 41 97
e 41 98
e 41 100
e 41 102
e 41 103
e 42 43
e 42 44
e 42 45
e 42 47
e 42 48
e 42 49
e 42 51
e 42 52
e 42 53
e 42 54
e 42 55
e 42 56
e 42 58
e 42 59
e 42 60
e 42 61
e 42 63
e 42 64
e 42 65
e 42 66
e 42 67
e 42 68
e 42 69
e 42 70
e 42 71
e 42 72
e 42 74
e 42 75
e 42 78
e 42 79
e 42 81
e 42 82
e 42 83
e 42 84
e 42 86
e 42 87
e 42 88
e 42 89
e 42 91
e 42 92
e 42 93
e 42 94
e 42 95
e 42 96
e 42 97
e 42 98
e 42 100
e 42 102
e 42 103
e 43 46
e 43 50
e 43 53
e 43 56
e 43 57
e 43 62
e 43 67
e 43 69
e 43 72
e 43 73
e 43 76
e 43 77
e 43 80
e 43 85
e 43 87
e 43 90
e 43 95
e 43 97
e 43 99
e 43 101
e 43 102
e 44 45
e 44 49
e 44 51
e 44 53
e 44 54
e 44 55
e 44 62
e 44 63
e 44 66
e 44 67
e 44 68
e 44 75
e 44 82
e 44 83
e 44 88
e 44 95
e 44 96
e 44 97
e 44 98
e 44 101
e 45 49
e 45 51
e 45 53
e 45 54
e 45 55
e 45 62
e 45 63
e 45 66
e 45 67
e 45 68
e 45 75
e 45 82
e 45 83
e 45 88
e 45 95
e 45 96
e 45 97
e 45 98
e 45 101
e 46 50
e 46 53
e 46 56
e 46 57
e 46 62
e 46 72
e 46 73
e 46 76
e 46 77
e 46 80
e 46 85
e 46 90
e 46 96
e 46 99
e 46 101
e 47 49
e 47 53
e 47 54
e 47 55
e 47 62
e 47 63
e 47 67
e 47 68
e 47 75
e 47 82
e 47 83
e 47 88
e 47 95
e 47 96
e 47 97
e 47 98
e 47 101
e 48 49
e 48 53
e 48 54
e 48 62
e 48 63
e 48 67
e 48 68
e 48 71
e 48 75
e 48 82
e 48 83
e 48 95
e 48 96
e 48 97
e 48 98
e 48 101
e 49 51
e 49 52
e 49 53
e 49 54
e 49 55
e 49 60
e 49 61
e 49 62
e 49 63
e 49 64
e 49 66
e 49 67
e 49 68
e 49 71
e 49 75
e 49 77
e 49 78
e 49 79
e 49 81
e 49 82
e 49 83
e 49 86
e 49 88
e 49 89
e 49 92
e 49 93
e 49 95
e 49 96
e 49 97
e 49 98
e 49 100
e 49 101
e 49 103
e 50 56
e 50 57
e 50 59
e 50 62
e 50 69
e 50 72
e 50 73
e 50 76
e 50 77
e 50 80
e 50 85
e 50 87
e 50 90
e 50 99
e 50 101
e 50 102
e 51 53
e 51 54
e 51 55
e 51 62
e 51 63
e 51 66
e 51 67
e 51 68
e 51 75
e 51 82
e 51 83
e 51 88
e 51 95
e 51 96
e 51 97
e 51 98
e 51 101
e 52 53
e 52 54
e 52 62
e 52 63
e 52 67
e 52 68
e 52 71
e 52 75
e 52 82
e 52 83
e 52 86
e 52 92
e 52 95
e 52 96
e 52 97
e 52 98
e 52 101
e 53 54
e 53 55
e 53 56
e 53 58
e 53 59
e 53 60
e 53 61
e 53 63
e 53 64
e 53 65
e 53 66
e 53 67
e 53 68
e 53 69
e 53 70
e 53 71
e 53 72
e 53 74
e 53 75
e 53 78
e 53 79
e 53 81
e 53 82
e 53 83
e 53 84
e 53 85
e 53 86
e 53 87
e 53 88
e 53 89
e 53 91
e 53 92
e 53 93
e 53 94
e 53 95
e 53 96
e 53 97
e 53 98
e 53 100
e 53 102
e 53 103
e 54 55
e 54 60
e 54 61
e 54 62
e 54 63
e 54 64
e 54 66
e 54 67
e 54 68
e 54 71
e 54 75
e 54 77
e 54 78
e 54 79
e 54 81
e 54 82
e 54 83
e 54 86
e 54 88
e 54 89
e 54 92
e 54 93
e 54 95
e 54 96
e 54 97
e 54 98
e 54 100
e 54 101
e 54 103
e 55 62
e 55 63
e 55 64
e 55 66
e 55 67
e 55 68
e 55 71
e 55 75
e 55 78
e 55 79
e 55 81
e 55 82
e 55 83
e 55 88
e 55 89
e 55 93
e 55 95
e 55 96
e 55 97
e 55 98
e 55 100
e 55 101
e 55 103
e 56 57
e 56 62
e 56 67
e 56 69
e 56 72
e 56 73
e 56 76
e 56 77
e 56 80
e 56 85
e 56 87
e 56 90
e 56 95
e 56 97
e 56 99
e 56 101
e 56 102
e 57 58
e 57 59
e 57 62
e 57 65
e 57 69
e 57 72
e 57 73
e 57 76
e 57 77
e 57 80
e 57 84
e 57 85
e 57 87
e 57 90
e 57 99
e 57 101
e 57 102
e 58 62
e 58 65
e 58 67
e 58 68
e 58 70
e 58 74
e 58 75
e 58 76
e 58 82
e 58 84
e 58 91
e 58 94
e 58 95
e 58 96
e 58 97
e 58 98
e 58 99
e 58 101
e 59 62
e 59 67
e 59 68
e 59 73
e 59 75
e 59 76
e 59 77
e 59 80
e 59 82
e 59 90
e 59 95
e 59 96
e 59 99
e 59 101
e 60 61
e 60 62
e 60 63
e 60 67
e 60 68
e 60 71
e 60 75
e 60 82
e 60 83
e 60 95
e 60 96
e 60 97
e 60 98
e 60 101
e 61 62
e 61 63
e 61 67
e 61 68
e 61 71
e 61 75
e 61 82
e 61 83
e 61 95
e 61 96
e 61 97
e 61 98
e 61 101
e 62 63
e 62 64
e 62 65
e 62 66
e 62 69
e 62 70
e 62 71
e 62 72
e 62 73
e 62 74
e 62 76
e 62 77
e 62 78
e 62 79
e 62 80
e 62 81
e 62 83
e 62 84
e 62 85
e 62 86
e 62 87
e 62 88
e 62 89
e 62 90
e 62 91
e 62 92
e 62 93
e 62 94
e 62 98
e 62 99
e 62 100
e 62 101
e 62 102
e 62 103
e 63 64
e 63 66
e 63 67
e 63 68
e 63 71
e 63 75
e 63 77
e 63 78
e 63 79
e 63 81
e 63 82
e 63 83
e 63 86
e 63 88
e 63 89
e 63 92
e 63 93
e 63 95
e 63 96
e 63 97
e 63 98
e 63 100
e 63 101
e 63 103
e 64 67
e 64 68
e 64 75
e 64 78
e 64 79
e 64 81
e 64 82
e 64 83
e 64 88
e 64 89
e 64 93
e 64 95
e 64 96
e 64 97
e 64 98
e 64 100
e 64 101
e 64 103
e 65 67
e 65 68
e 65 70
e 65 73
e 65 74
e 65 75
e 65 76
e 65 80
e 65 82
e 65 84
e 65 91
e 65 94
e 65 95
e 65 96
e 65 97
e 65 98
e 65 99
e 65 101
e 66 67
e 66 68
e 66 75
e 66 82
e 66 83
e 66 88
e 66 95
e 66 96
e 66 97
e 66 98
e 66 101
e 67 68
e 67 69
e 67 70
e 67 71
e 67 72
e 67 74
e 67 75
e 67 78
e 67 79
e 67 81
e 67 82
e 67 83
e 67 84
e 67 86
e 67 87
e 67 88
e 67 89
e 67 91
e 67 92
e 67 93
e 67 94
e 67 95
e 67 96
e 67 97
e 67 98
e 67 100
e 67 102
e 67 103
e 68 70
e 68 71
e 68 74
e 68 75
e 68 78
e 68 79
e 68 81
e 68 82
e 68 83
e 68 84
e 68 85
e 68 86
e 68 88
e 68 89
e 68 91
e 68 92
e 68 93
e 68 94
e 68 95
e 68 96
e 68 97
e 68 98
e 68 100
e 68 103
e 69 72
e 69 73
e 69 76
e 69 77
e 69 80
e 69 87
e 69 90
e 69 95
e 69 97
e 69 99
e 69 101
e 69 102
e 70 74
e 70 75
e 70 82
e 70 84
e 70 91
e 70 94
e 70 95
e 70 96
e 70 97
e 70 98
e 70 101
e 71 75
e 71 77
e 71 82
e 71 83
e 71 86
e 71 88
e 71 92
e 71 95
e 71 96
e 71 97
e 71 98
e 71 101
e 72 73
e 72 76
e 72 77
e 72 80
e 72 85
e 72 87
e 72 90
e 72 95
e 72 97
e 72 99
e 72 101
e 72 102
e 73 76
e 73 77
e 73 80
e 73 84
e 73 85
e 73 87
e 73 90
e 73 99
e 73 101
e 73 102
e 74 75
e 74 76
e 74 82
e 74 84
e 74 91
e 74 94
e 74 95
e 74 96
e 74 97
e 74 98
e 74 101
e 75 78
e 75 79
e 75 81
e 75 82
e 75 83
e 75 84
e 75 85
e 75 86
e 75 88
e 75 89
e 75 91
e 75 92
e 75 93
e 75 94
e 75 95
e 75 96
e 75 97
e 75 98
e 75 100
e 75 103
e 76 77
e 76 80
e 76 84
e 76 85
e 76 87
e 76 90
e 76 91
e 76 94
e 76 99
e 76 101
e 76 102
e 77 80
e 77 83
e 77 85
e 77 87
e 77 90
e 77 98
e 77 99
e 77 101
e 77 102
e 78 79
e 78 81
e 78 82
e 78 83
e 78 88
e 78 89
e 78 95
e 78 96
e 78 97
e 78 98
e 78 100
e 78 101
e 79 81
e 79 82
e 79 83
e 79 88
e 79 89
e 79 95
e 79 96
e 79 97
e 79 98
e 79 100
e 79 101
e 80 85
e 80 87
e 80 90
e 80 99
e 80 101
e 80 102
e 81 82
e 81 83
e 81 88
e 81 89
e 81 95
e 81 96
e 81 97
e 81 98
e 81 101
e 82 83
e 82 84
e 82 85
e 82 86
e 82 88
e 82 89
e 82 91
e 82 92
e 82 93
e 82 94
e 82 95
e 82 96
e 82 97
e 82 98
e 82 100
e 82 103
e 83 86
e 83 88
e 83 89
e 83 92
e 83 93
e 83 95
e 83 96
e 83 97
e 83 98
e 83 100
e 83 101
e 83 103
e 84 91
e 84 94
e 84 95
e 84 96
e 84 97
e 84 98
e 84 99
e 84 101
e 85 90
e 85 96
e 85 99
e 85 101
e 86 88
e 86 92
e 86 95
e 86 96
e 86 97
e 86 98
e 86 101
e 87 90
e 87 95
e 87 97
e 87 99
e 87 101
e 87 102
e 88 89
e 88 93
e 88 95
e 88 96
e 88 97
e 88 98
e 88 100
e 88 101
e 88 103
e 89 95
e 89 96
e 89 97
e 89 98
e 89 101
e 90 99
e 90 101
e 90 102
e 91 94
e 91 95
e 91 96
e 91 97
e 91 98
e 91 99
e 91 101
e 92 95
e 92 96
e 92 97
e 92 98
e 92 101
e 93 95
e 93 96
e 93 97
e 93 98
e 93 101
e 93 103
e 94 95
e 94 96
e 94 97
e 94 98
e 94 101
e 95 96
e 95 97
e 95 98
e 95 100
e 95 102
e 95 103
e 96 97
e 96 98
e 96 100
e 96 103
e 97 98
e 97 100
e 97 102
e 97 103
e 98 100
e 98 101
e 98 103
e 99 101
e 99 102
e 100 101
e 101 102
e 101 103
